<instance>
<presentation name="#25_4_6_4_random#" maxConstraintArity="2" maximize="false" format="XCSP 2.1_FRODO"/>

<agents nbAgents ="25">
  <agent name="agent0" />
  <agent name="agent1" />
  <agent name="agent2" />
  <agent name="agent3" />
  <agent name="agent4" />
  <agent name="agent5" />
  <agent name="agent6" />
  <agent name="agent7" />
  <agent name="agent8" />
  <agent name="agent9" />
  <agent name="agent10" />
  <agent name="agent11" />
  <agent name="agent12" />
  <agent name="agent13" />
  <agent name="agent14" />
  <agent name="agent15" />
  <agent name="agent16" />
  <agent name="agent17" />
  <agent name="agent18" />
  <agent name="agent19" />
  <agent name="agent20" />
  <agent name="agent21" />
  <agent name="agent22" />
  <agent name="agent23" />
  <agent name="agent24" />
</agents>

<domains nbDomains="1">
  <domain name="d4">0..3</domain>
</domains>

<variables nbVariables="25">
  <variable name="v0" domain="d4" agent="agent0" />
  <variable name="v1" domain="d4" agent="agent1" />
  <variable name="v2" domain="d4" agent="agent2" />
  <variable name="v3" domain="d4" agent="agent3" />
  <variable name="v4" domain="d4" agent="agent4" />
  <variable name="v5" domain="d4" agent="agent5" />
  <variable name="v6" domain="d4" agent="agent6" />
  <variable name="v7" domain="d4" agent="agent7" />
  <variable name="v8" domain="d4" agent="agent8" />
  <variable name="v9" domain="d4" agent="agent9" />
  <variable name="v10" domain="d4" agent="agent10" />
  <variable name="v11" domain="d4" agent="agent11" />
  <variable name="v12" domain="d4" agent="agent12" />
  <variable name="v13" domain="d4" agent="agent13" />
  <variable name="v14" domain="d4" agent="agent14" />
  <variable name="v15" domain="d4" agent="agent15" />
  <variable name="v16" domain="d4" agent="agent16" />
  <variable name="v17" domain="d4" agent="agent17" />
  <variable name="v18" domain="d4" agent="agent18" />
  <variable name="v19" domain="d4" agent="agent19" />
  <variable name="v20" domain="d4" agent="agent20" />
  <variable name="v21" domain="d4" agent="agent21" />
  <variable name="v22" domain="d4" agent="agent22" />
  <variable name="v23" domain="d4" agent="agent23" />
  <variable name="v24" domain="d4" agent="agent24" />
</variables>

<relations nbRelations="89">
  <relation name="0_7" arity="2" nbTuples="16" semantics="soft" defaultCost="0">
    77 : 3 1 | 71 : 3 0 | 55 : 3 3 | 76 : 3 2 | 97 : 2 0 | 75 : 2 1 | 41 : 2 2 | 71 : 2 3 | 89 : 1 3 | 55 : 1 2 | 15 : 1 1 | 94 : 1 0 | 56 : 0 2 | 38 : 0 3 | 98 : 0 0 | 49 : 0 1 
  </relation>
  <relation name="0_11" arity="2" nbTuples="16" semantics="soft" defaultCost="0">
    74 : 3 1 | 39 : 3 0 | 23 : 3 3 | 46 : 3 2 | 70 : 2 0 | 62 : 2 1 | 24 : 2 2 | 82 : 2 3 | 44 : 1 3 | 86 : 1 2 | 3 : 1 1 | 81 : 1 0 | 8 : 0 2 | 17 : 0 3 | 29 : 0 0 | 100 : 0 1 
  </relation>
  <relation name="0_12" arity="2" nbTuples="16" semantics="soft" defaultCost="0">
    37 : 3 1 | 47 : 3 0 | 37 : 3 3 | 5 : 3 2 | 58 : 2 0 | 42 : 2 1 | 49 : 2 2 | 20 : 2 3 | 61 : 1 3 | 59 : 1 2 | 62 : 1 1 | 27 : 1 0 | 40 : 0 2 | 81 : 0 3 | 91 : 0 0 | 58 : 0 1 
  </relation>
  <relation name="0_13" arity="2" nbTuples="16" semantics="soft" defaultCost="0">
    22 : 3 1 | 29 : 3 0 | 20 : 3 3 | 17 : 3 2 | 40 : 2 0 | 63 : 2 1 | 19 : 2 2 | 61 : 2 3 | 72 : 1 3 | 49 : 1 2 | 55 : 1 1 | 7 : 1 0 | 55 : 0 2 | 61 : 0 3 | 32 : 0 0 | 61 : 0 1 
  </relation>
  <relation name="0_16" arity="2" nbTuples="16" semantics="soft" defaultCost="0">
    37 : 3 1 | 32 : 3 0 | 14 : 3 3 | 11 : 3 2 | 63 : 2 0 | 85 : 2 1 | 40 : 2 2 | 40 : 2 3 | 49 : 1 3 | 52 : 1 2 | 59 : 1 1 | 97 : 1 0 | 99 : 0 2 | 30 : 0 3 | 79 : 0 0 | 82 : 0 1 
  </relation>
  <relation name="0_20" arity="2" nbTuples="16" semantics="soft" defaultCost="0">
    75 : 3 1 | 91 : 3 0 | 35 : 3 3 | 52 : 3 2 | 47 : 2 0 | 10 : 2 1 | 58 : 2 2 | 47 : 2 3 | 1 : 1 3 | 78 : 1 2 | 88 : 1 1 | 34 : 1 0 | 86 : 0 2 | 36 : 0 3 | 61 : 0 0 | 9 : 0 1 
  </relation>
  <relation name="0_22" arity="2" nbTuples="16" semantics="soft" defaultCost="0">
    45 : 3 1 | 58 : 3 0 | 68 : 3 3 | 76 : 3 2 | 88 : 2 0 | 46 : 2 1 | 39 : 2 2 | 83 : 2 3 | 94 : 1 3 | 64 : 1 2 | 17 : 1 1 | 4 : 1 0 | 91 : 0 2 | 91 : 0 3 | 12 : 0 0 | 29 : 0 1 
  </relation>
  <relation name="0_23" arity="2" nbTuples="16" semantics="soft" defaultCost="0">
    19 : 3 1 | 49 : 3 0 | 29 : 3 3 | 90 : 3 2 | 71 : 2 0 | 96 : 2 1 | 90 : 2 2 | 90 : 2 3 | 37 : 1 3 | 77 : 1 2 | 71 : 1 1 | 44 : 1 0 | 26 : 0 2 | 3 : 0 3 | 44 : 0 0 | 67 : 0 1 
  </relation>
  <relation name="1_3" arity="2" nbTuples="16" semantics="soft" defaultCost="0">
    60 : 3 1 | 45 : 3 0 | 63 : 3 3 | 21 : 3 2 | 70 : 2 0 | 7 : 2 1 | 84 : 2 2 | 74 : 2 3 | 65 : 1 3 | 78 : 1 2 | 14 : 1 1 | 99 : 1 0 | 63 : 0 2 | 8 : 0 3 | 90 : 0 0 | 67 : 0 1 
  </relation>
  <relation name="1_5" arity="2" nbTuples="16" semantics="soft" defaultCost="0">
    28 : 3 1 | 12 : 3 0 | 68 : 3 3 | 55 : 3 2 | 22 : 2 0 | 83 : 2 1 | 16 : 2 2 | 37 : 2 3 | 93 : 1 3 | 95 : 1 2 | 77 : 1 1 | 57 : 1 0 | 58 : 0 2 | 63 : 0 3 | 95 : 0 0 | 32 : 0 1 
  </relation>
  <relation name="1_6" arity="2" nbTuples="16" semantics="soft" defaultCost="0">
    90 : 3 1 | 72 : 3 0 | 1 : 3 3 | 99 : 3 2 | 63 : 2 0 | 64 : 2 1 | 75 : 2 2 | 85 : 2 3 | 10 : 1 3 | 15 : 1 2 | 91 : 1 1 | 10 : 1 0 | 37 : 0 2 | 61 : 0 3 | 93 : 0 0 | 29 : 0 1 
  </relation>
  <relation name="1_9" arity="2" nbTuples="16" semantics="soft" defaultCost="0">
    71 : 3 1 | 79 : 3 0 | 18 : 3 3 | 72 : 3 2 | 82 : 2 0 | 65 : 2 1 | 99 : 2 2 | 26 : 2 3 | 22 : 1 3 | 80 : 1 2 | 22 : 1 1 | 34 : 1 0 | 97 : 0 2 | 44 : 0 3 | 28 : 0 0 | 100 : 0 1 
  </relation>
  <relation name="1_11" arity="2" nbTuples="16" semantics="soft" defaultCost="0">
    75 : 3 1 | 73 : 3 0 | 50 : 3 3 | 18 : 3 2 | 99 : 2 0 | 78 : 2 1 | 57 : 2 2 | 4 : 2 3 | 52 : 1 3 | 57 : 1 2 | 34 : 1 1 | 13 : 1 0 | 2 : 0 2 | 28 : 0 3 | 73 : 0 0 | 36 : 0 1 
  </relation>
  <relation name="1_15" arity="2" nbTuples="16" semantics="soft" defaultCost="0">
    77 : 3 1 | 93 : 3 0 | 59 : 3 3 | 80 : 3 2 | 92 : 2 0 | 64 : 2 1 | 67 : 2 2 | 46 : 2 3 | 28 : 1 3 | 8 : 1 2 | 99 : 1 1 | 77 : 1 0 | 86 : 0 2 | 1 : 0 3 | 49 : 0 0 | 42 : 0 1 
  </relation>
  <relation name="1_17" arity="2" nbTuples="16" semantics="soft" defaultCost="0">
    6 : 3 1 | 14 : 3 0 | 64 : 3 3 | 36 : 3 2 | 25 : 2 0 | 14 : 2 1 | 29 : 2 2 | 13 : 2 3 | 63 : 1 3 | 5 : 1 2 | 13 : 1 1 | 60 : 1 0 | 87 : 0 2 | 2 : 0 3 | 68 : 0 0 | 69 : 0 1 
  </relation>
  <relation name="1_18" arity="2" nbTuples="16" semantics="soft" defaultCost="0">
    61 : 3 1 | 27 : 3 0 | 74 : 3 3 | 34 : 3 2 | 55 : 2 0 | 61 : 2 1 | 13 : 2 2 | 21 : 2 3 | 24 : 1 3 | 63 : 1 2 | 93 : 1 1 | 8 : 1 0 | 8 : 0 2 | 81 : 0 3 | 87 : 0 0 | 85 : 0 1 
  </relation>
  <relation name="2_17" arity="2" nbTuples="16" semantics="soft" defaultCost="0">
    26 : 3 1 | 83 : 3 0 | 51 : 3 3 | 55 : 3 2 | 29 : 2 0 | 39 : 2 1 | 64 : 2 2 | 34 : 2 3 | 75 : 1 3 | 53 : 1 2 | 72 : 1 1 | 62 : 1 0 | 66 : 0 2 | 9 : 0 3 | 61 : 0 0 | 12 : 0 1 
  </relation>
  <relation name="2_19" arity="2" nbTuples="16" semantics="soft" defaultCost="0">
    11 : 3 1 | 75 : 3 0 | 81 : 3 3 | 8 : 3 2 | 6 : 2 0 | 1 : 2 1 | 78 : 2 2 | 76 : 2 3 | 43 : 1 3 | 65 : 1 2 | 89 : 1 1 | 65 : 1 0 | 10 : 0 2 | 21 : 0 3 | 17 : 0 0 | 20 : 0 1 
  </relation>
  <relation name="3_18" arity="2" nbTuples="16" semantics="soft" defaultCost="0">
    10 : 3 1 | 96 : 3 0 | 36 : 3 3 | 63 : 3 2 | 76 : 2 0 | 32 : 2 1 | 81 : 2 2 | 50 : 2 3 | 56 : 1 3 | 72 : 1 2 | 73 : 1 1 | 5 : 1 0 | 78 : 0 2 | 83 : 0 3 | 58 : 0 0 | 60 : 0 1 
  </relation>
  <relation name="3_13" arity="2" nbTuples="16" semantics="soft" defaultCost="0">
    12 : 3 1 | 49 : 3 0 | 83 : 3 3 | 89 : 3 2 | 56 : 2 0 | 14 : 2 1 | 52 : 2 2 | 61 : 2 3 | 71 : 1 3 | 74 : 1 2 | 83 : 1 1 | 59 : 1 0 | 23 : 0 2 | 77 : 0 3 | 74 : 0 0 | 99 : 0 1 
  </relation>
  <relation name="3_23" arity="2" nbTuples="16" semantics="soft" defaultCost="0">
    50 : 3 1 | 28 : 3 0 | 16 : 3 3 | 36 : 3 2 | 76 : 2 0 | 30 : 2 1 | 11 : 2 2 | 91 : 2 3 | 32 : 1 3 | 52 : 1 2 | 34 : 1 1 | 66 : 1 0 | 27 : 0 2 | 29 : 0 3 | 29 : 0 0 | 75 : 0 1 
  </relation>
  <relation name="4_6" arity="2" nbTuples="16" semantics="soft" defaultCost="0">
    87 : 3 1 | 18 : 3 0 | 95 : 3 3 | 31 : 3 2 | 34 : 2 0 | 13 : 2 1 | 95 : 2 2 | 31 : 2 3 | 69 : 1 3 | 45 : 1 2 | 32 : 1 1 | 30 : 1 0 | 46 : 0 2 | 75 : 0 3 | 31 : 0 0 | 69 : 0 1 
  </relation>
  <relation name="4_11" arity="2" nbTuples="16" semantics="soft" defaultCost="0">
    60 : 3 1 | 18 : 3 0 | 35 : 3 3 | 6 : 3 2 | 87 : 2 0 | 55 : 2 1 | 20 : 2 2 | 31 : 2 3 | 10 : 1 3 | 34 : 1 2 | 23 : 1 1 | 27 : 1 0 | 25 : 0 2 | 86 : 0 3 | 52 : 0 0 | 78 : 0 1 
  </relation>
  <relation name="4_16" arity="2" nbTuples="16" semantics="soft" defaultCost="0">
    44 : 3 1 | 2 : 3 0 | 56 : 3 3 | 6 : 3 2 | 59 : 2 0 | 82 : 2 1 | 9 : 2 2 | 71 : 2 3 | 98 : 1 3 | 62 : 1 2 | 26 : 1 1 | 1 : 1 0 | 19 : 0 2 | 89 : 0 3 | 40 : 0 0 | 68 : 0 1 
  </relation>
  <relation name="4_20" arity="2" nbTuples="16" semantics="soft" defaultCost="0">
    88 : 3 1 | 97 : 3 0 | 17 : 3 3 | 81 : 3 2 | 6 : 2 0 | 65 : 2 1 | 62 : 2 2 | 17 : 2 3 | 11 : 1 3 | 39 : 1 2 | 60 : 1 1 | 5 : 1 0 | 99 : 0 2 | 34 : 0 3 | 74 : 0 0 | 35 : 0 1 
  </relation>
  <relation name="4_21" arity="2" nbTuples="16" semantics="soft" defaultCost="0">
    25 : 3 1 | 77 : 3 0 | 50 : 3 3 | 8 : 3 2 | 83 : 2 0 | 78 : 2 1 | 21 : 2 2 | 51 : 2 3 | 5 : 1 3 | 92 : 1 2 | 96 : 1 1 | 51 : 1 0 | 15 : 0 2 | 91 : 0 3 | 60 : 0 0 | 79 : 0 1 
  </relation>
  <relation name="4_23" arity="2" nbTuples="16" semantics="soft" defaultCost="0">
    95 : 3 1 | 50 : 3 0 | 32 : 3 3 | 14 : 3 2 | 24 : 2 0 | 24 : 2 1 | 89 : 2 2 | 10 : 2 3 | 61 : 1 3 | 89 : 1 2 | 35 : 1 1 | 9 : 1 0 | 57 : 0 2 | 10 : 0 3 | 77 : 0 0 | 27 : 0 1 
  </relation>
  <relation name="5_6" arity="2" nbTuples="16" semantics="soft" defaultCost="0">
    43 : 3 1 | 68 : 3 0 | 45 : 3 3 | 45 : 3 2 | 83 : 2 0 | 97 : 2 1 | 32 : 2 2 | 70 : 2 3 | 93 : 1 3 | 7 : 1 2 | 44 : 1 1 | 67 : 1 0 | 50 : 0 2 | 88 : 0 3 | 88 : 0 0 | 38 : 0 1 
  </relation>
  <relation name="5_8" arity="2" nbTuples="16" semantics="soft" defaultCost="0">
    2 : 3 1 | 69 : 3 0 | 41 : 3 3 | 20 : 3 2 | 50 : 2 0 | 92 : 2 1 | 26 : 2 2 | 76 : 2 3 | 51 : 1 3 | 82 : 1 2 | 20 : 1 1 | 66 : 1 0 | 62 : 0 2 | 78 : 0 3 | 37 : 0 0 | 3 : 0 1 
  </relation>
  <relation name="5_15" arity="2" nbTuples="16" semantics="soft" defaultCost="0">
    26 : 3 1 | 49 : 3 0 | 67 : 3 3 | 39 : 3 2 | 78 : 2 0 | 65 : 2 1 | 67 : 2 2 | 31 : 2 3 | 41 : 1 3 | 2 : 1 2 | 41 : 1 1 | 57 : 1 0 | 39 : 0 2 | 38 : 0 3 | 71 : 0 0 | 5 : 0 1 
  </relation>
  <relation name="5_17" arity="2" nbTuples="16" semantics="soft" defaultCost="0">
    78 : 3 1 | 87 : 3 0 | 8 : 3 3 | 56 : 3 2 | 71 : 2 0 | 29 : 2 1 | 55 : 2 2 | 67 : 2 3 | 23 : 1 3 | 87 : 1 2 | 79 : 1 1 | 66 : 1 0 | 90 : 0 2 | 85 : 0 3 | 29 : 0 0 | 56 : 0 1 
  </relation>
  <relation name="5_20" arity="2" nbTuples="16" semantics="soft" defaultCost="0">
    14 : 3 1 | 2 : 3 0 | 91 : 3 3 | 33 : 3 2 | 77 : 2 0 | 47 : 2 1 | 4 : 2 2 | 72 : 2 3 | 39 : 1 3 | 80 : 1 2 | 66 : 1 1 | 48 : 1 0 | 40 : 0 2 | 77 : 0 3 | 32 : 0 0 | 24 : 0 1 
  </relation>
  <relation name="5_22" arity="2" nbTuples="16" semantics="soft" defaultCost="0">
    63 : 3 1 | 93 : 3 0 | 66 : 3 3 | 47 : 3 2 | 96 : 2 0 | 52 : 2 1 | 97 : 2 2 | 99 : 2 3 | 38 : 1 3 | 37 : 1 2 | 59 : 1 1 | 80 : 1 0 | 60 : 0 2 | 57 : 0 3 | 92 : 0 0 | 29 : 0 1 
  </relation>
  <relation name="5_24" arity="2" nbTuples="16" semantics="soft" defaultCost="0">
    93 : 3 1 | 89 : 3 0 | 12 : 3 3 | 32 : 3 2 | 79 : 2 0 | 19 : 2 1 | 80 : 2 2 | 29 : 2 3 | 14 : 1 3 | 95 : 1 2 | 47 : 1 1 | 45 : 1 0 | 17 : 0 2 | 70 : 0 3 | 98 : 0 0 | 93 : 0 1 
  </relation>
  <relation name="6_9" arity="2" nbTuples="16" semantics="soft" defaultCost="0">
    61 : 3 1 | 14 : 3 0 | 54 : 3 3 | 48 : 3 2 | 23 : 2 0 | 4 : 2 1 | 82 : 2 2 | 51 : 2 3 | 62 : 1 3 | 43 : 1 2 | 47 : 1 1 | 82 : 1 0 | 5 : 0 2 | 17 : 0 3 | 3 : 0 0 | 9 : 0 1 
  </relation>
  <relation name="6_10" arity="2" nbTuples="16" semantics="soft" defaultCost="0">
    58 : 3 1 | 52 : 3 0 | 89 : 3 3 | 30 : 3 2 | 5 : 2 0 | 16 : 2 1 | 35 : 2 2 | 50 : 2 3 | 53 : 1 3 | 2 : 1 2 | 97 : 1 1 | 64 : 1 0 | 14 : 0 2 | 36 : 0 3 | 34 : 0 0 | 41 : 0 1 
  </relation>
  <relation name="6_11" arity="2" nbTuples="16" semantics="soft" defaultCost="0">
    40 : 3 1 | 8 : 3 0 | 24 : 3 3 | 72 : 3 2 | 84 : 2 0 | 98 : 2 1 | 9 : 2 2 | 54 : 2 3 | 42 : 1 3 | 87 : 1 2 | 31 : 1 1 | 79 : 1 0 | 25 : 0 2 | 65 : 0 3 | 13 : 0 0 | 85 : 0 1 
  </relation>
  <relation name="6_12" arity="2" nbTuples="16" semantics="soft" defaultCost="0">
    29 : 3 1 | 24 : 3 0 | 94 : 3 3 | 71 : 3 2 | 62 : 2 0 | 72 : 2 1 | 79 : 2 2 | 5 : 2 3 | 42 : 1 3 | 33 : 1 2 | 63 : 1 1 | 35 : 1 0 | 31 : 0 2 | 95 : 0 3 | 79 : 0 0 | 39 : 0 1 
  </relation>
  <relation name="6_15" arity="2" nbTuples="16" semantics="soft" defaultCost="0">
    2 : 3 1 | 81 : 3 0 | 70 : 3 3 | 44 : 3 2 | 30 : 2 0 | 57 : 2 1 | 26 : 2 2 | 76 : 2 3 | 66 : 1 3 | 52 : 1 2 | 25 : 1 1 | 89 : 1 0 | 52 : 0 2 | 43 : 0 3 | 29 : 0 0 | 38 : 0 1 
  </relation>
  <relation name="6_18" arity="2" nbTuples="16" semantics="soft" defaultCost="0">
    100 : 3 1 | 68 : 3 0 | 91 : 3 3 | 44 : 3 2 | 43 : 2 0 | 60 : 2 1 | 21 : 2 2 | 8 : 2 3 | 3 : 1 3 | 78 : 1 2 | 20 : 1 1 | 6 : 1 0 | 73 : 0 2 | 10 : 0 3 | 73 : 0 0 | 86 : 0 1 
  </relation>
  <relation name="6_19" arity="2" nbTuples="16" semantics="soft" defaultCost="0">
    62 : 3 1 | 7 : 3 0 | 6 : 3 3 | 8 : 3 2 | 100 : 2 0 | 73 : 2 1 | 28 : 2 2 | 64 : 2 3 | 12 : 1 3 | 94 : 1 2 | 80 : 1 1 | 11 : 1 0 | 10 : 0 2 | 41 : 0 3 | 77 : 0 0 | 74 : 0 1 
  </relation>
  <relation name="6_21" arity="2" nbTuples="16" semantics="soft" defaultCost="0">
    24 : 3 1 | 56 : 3 0 | 59 : 3 3 | 6 : 3 2 | 62 : 2 0 | 42 : 2 1 | 50 : 2 2 | 70 : 2 3 | 76 : 1 3 | 11 : 1 2 | 65 : 1 1 | 13 : 1 0 | 11 : 0 2 | 8 : 0 3 | 11 : 0 0 | 91 : 0 1 
  </relation>
  <relation name="6_23" arity="2" nbTuples="16" semantics="soft" defaultCost="0">
    97 : 3 1 | 41 : 3 0 | 20 : 3 3 | 13 : 3 2 | 77 : 2 0 | 58 : 2 1 | 14 : 2 2 | 19 : 2 3 | 13 : 1 3 | 3 : 1 2 | 61 : 1 1 | 29 : 1 0 | 20 : 0 2 | 88 : 0 3 | 57 : 0 0 | 88 : 0 1 
  </relation>
  <relation name="7_8" arity="2" nbTuples="16" semantics="soft" defaultCost="0">
    65 : 3 1 | 75 : 3 0 | 24 : 3 3 | 59 : 3 2 | 37 : 2 0 | 43 : 2 1 | 27 : 2 2 | 88 : 2 3 | 1 : 1 3 | 7 : 1 2 | 86 : 1 1 | 26 : 1 0 | 18 : 0 2 | 42 : 0 3 | 79 : 0 0 | 36 : 0 1 
  </relation>
  <relation name="7_10" arity="2" nbTuples="16" semantics="soft" defaultCost="0">
    99 : 3 1 | 22 : 3 0 | 76 : 3 3 | 56 : 3 2 | 62 : 2 0 | 99 : 2 1 | 17 : 2 2 | 31 : 2 3 | 40 : 1 3 | 81 : 1 2 | 97 : 1 1 | 8 : 1 0 | 62 : 0 2 | 88 : 0 3 | 61 : 0 0 | 81 : 0 1 
  </relation>
  <relation name="7_23" arity="2" nbTuples="16" semantics="soft" defaultCost="0">
    22 : 3 1 | 28 : 3 0 | 14 : 3 3 | 50 : 3 2 | 63 : 2 0 | 62 : 2 1 | 80 : 2 2 | 87 : 2 3 | 76 : 1 3 | 99 : 1 2 | 97 : 1 1 | 76 : 1 0 | 37 : 0 2 | 37 : 0 3 | 48 : 0 0 | 96 : 0 1 
  </relation>
  <relation name="7_9" arity="2" nbTuples="16" semantics="soft" defaultCost="0">
    5 : 3 1 | 93 : 3 0 | 76 : 3 3 | 16 : 3 2 | 94 : 2 0 | 75 : 2 1 | 60 : 2 2 | 73 : 2 3 | 65 : 1 3 | 78 : 1 2 | 47 : 1 1 | 95 : 1 0 | 51 : 0 2 | 60 : 0 3 | 37 : 0 0 | 71 : 0 1 
  </relation>
  <relation name="8_9" arity="2" nbTuples="16" semantics="soft" defaultCost="0">
    99 : 3 1 | 63 : 3 0 | 38 : 3 3 | 25 : 3 2 | 17 : 2 0 | 71 : 2 1 | 46 : 2 2 | 89 : 2 3 | 33 : 1 3 | 57 : 1 2 | 76 : 1 1 | 43 : 1 0 | 45 : 0 2 | 46 : 0 3 | 3 : 0 0 | 99 : 0 1 
  </relation>
  <relation name="8_15" arity="2" nbTuples="16" semantics="soft" defaultCost="0">
    16 : 3 1 | 45 : 3 0 | 77 : 3 3 | 60 : 3 2 | 94 : 2 0 | 7 : 2 1 | 78 : 2 2 | 40 : 2 3 | 99 : 1 3 | 33 : 1 2 | 3 : 1 1 | 8 : 1 0 | 46 : 0 2 | 28 : 0 3 | 6 : 0 0 | 29 : 0 1 
  </relation>
  <relation name="8_17" arity="2" nbTuples="16" semantics="soft" defaultCost="0">
    84 : 3 1 | 26 : 3 0 | 62 : 3 3 | 92 : 3 2 | 51 : 2 0 | 27 : 2 1 | 21 : 2 2 | 75 : 2 3 | 80 : 1 3 | 98 : 1 2 | 36 : 1 1 | 50 : 1 0 | 30 : 0 2 | 40 : 0 3 | 4 : 0 0 | 42 : 0 1 
  </relation>
  <relation name="8_22" arity="2" nbTuples="16" semantics="soft" defaultCost="0">
    10 : 3 1 | 93 : 3 0 | 70 : 3 3 | 19 : 3 2 | 4 : 2 0 | 60 : 2 1 | 11 : 2 2 | 96 : 2 3 | 96 : 1 3 | 3 : 1 2 | 52 : 1 1 | 70 : 1 0 | 31 : 0 2 | 78 : 0 3 | 94 : 0 0 | 43 : 0 1 
  </relation>
  <relation name="8_24" arity="2" nbTuples="16" semantics="soft" defaultCost="0">
    58 : 3 1 | 27 : 3 0 | 23 : 3 3 | 27 : 3 2 | 77 : 2 0 | 21 : 2 1 | 81 : 2 2 | 40 : 2 3 | 32 : 1 3 | 68 : 1 2 | 55 : 1 1 | 9 : 1 0 | 20 : 0 2 | 41 : 0 3 | 43 : 0 0 | 14 : 0 1 
  </relation>
  <relation name="9_14" arity="2" nbTuples="16" semantics="soft" defaultCost="0">
    40 : 3 1 | 56 : 3 0 | 47 : 3 3 | 68 : 3 2 | 81 : 2 0 | 95 : 2 1 | 49 : 2 2 | 70 : 2 3 | 64 : 1 3 | 87 : 1 2 | 61 : 1 1 | 27 : 1 0 | 96 : 0 2 | 5 : 0 3 | 86 : 0 0 | 54 : 0 1 
  </relation>
  <relation name="9_16" arity="2" nbTuples="16" semantics="soft" defaultCost="0">
    67 : 3 1 | 26 : 3 0 | 5 : 3 3 | 68 : 3 2 | 64 : 2 0 | 24 : 2 1 | 5 : 2 2 | 80 : 2 3 | 71 : 1 3 | 15 : 1 2 | 60 : 1 1 | 64 : 1 0 | 4 : 0 2 | 49 : 0 3 | 1 : 0 0 | 88 : 0 1 
  </relation>
  <relation name="9_21" arity="2" nbTuples="16" semantics="soft" defaultCost="0">
    61 : 3 1 | 49 : 3 0 | 39 : 3 3 | 47 : 3 2 | 13 : 2 0 | 35 : 2 1 | 79 : 2 2 | 49 : 2 3 | 36 : 1 3 | 39 : 1 2 | 8 : 1 1 | 98 : 1 0 | 46 : 0 2 | 19 : 0 3 | 38 : 0 0 | 91 : 0 1 
  </relation>
  <relation name="9_22" arity="2" nbTuples="16" semantics="soft" defaultCost="0">
    91 : 3 1 | 92 : 3 0 | 19 : 3 3 | 7 : 3 2 | 75 : 2 0 | 19 : 2 1 | 7 : 2 2 | 86 : 2 3 | 41 : 1 3 | 84 : 1 2 | 50 : 1 1 | 1 : 1 0 | 37 : 0 2 | 34 : 0 3 | 53 : 0 0 | 57 : 0 1 
  </relation>
  <relation name="9_23" arity="2" nbTuples="16" semantics="soft" defaultCost="0">
    34 : 3 1 | 7 : 3 0 | 76 : 3 3 | 65 : 3 2 | 55 : 2 0 | 47 : 2 1 | 33 : 2 2 | 21 : 2 3 | 92 : 1 3 | 19 : 1 2 | 83 : 1 1 | 24 : 1 0 | 70 : 0 2 | 71 : 0 3 | 92 : 0 0 | 65 : 0 1 
  </relation>
  <relation name="10_11" arity="2" nbTuples="16" semantics="soft" defaultCost="0">
    8 : 3 1 | 96 : 3 0 | 2 : 3 3 | 73 : 3 2 | 82 : 2 0 | 5 : 2 1 | 35 : 2 2 | 100 : 2 3 | 30 : 1 3 | 96 : 1 2 | 75 : 1 1 | 76 : 1 0 | 5 : 0 2 | 84 : 0 3 | 48 : 0 0 | 37 : 0 1 
  </relation>
  <relation name="10_12" arity="2" nbTuples="16" semantics="soft" defaultCost="0">
    33 : 3 1 | 19 : 3 0 | 89 : 3 3 | 24 : 3 2 | 42 : 2 0 | 14 : 2 1 | 44 : 2 2 | 69 : 2 3 | 100 : 1 3 | 78 : 1 2 | 4 : 1 1 | 88 : 1 0 | 80 : 0 2 | 32 : 0 3 | 42 : 0 0 | 64 : 0 1 
  </relation>
  <relation name="10_16" arity="2" nbTuples="16" semantics="soft" defaultCost="0">
    42 : 3 1 | 64 : 3 0 | 42 : 3 3 | 12 : 3 2 | 14 : 2 0 | 24 : 2 1 | 21 : 2 2 | 16 : 2 3 | 12 : 1 3 | 68 : 1 2 | 15 : 1 1 | 14 : 1 0 | 93 : 0 2 | 43 : 0 3 | 59 : 0 0 | 41 : 0 1 
  </relation>
  <relation name="10_21" arity="2" nbTuples="16" semantics="soft" defaultCost="0">
    67 : 3 1 | 28 : 3 0 | 87 : 3 3 | 89 : 3 2 | 49 : 2 0 | 48 : 2 1 | 33 : 2 2 | 66 : 2 3 | 71 : 1 3 | 75 : 1 2 | 70 : 1 1 | 45 : 1 0 | 1 : 0 2 | 59 : 0 3 | 72 : 0 0 | 88 : 0 1 
  </relation>
  <relation name="10_23" arity="2" nbTuples="16" semantics="soft" defaultCost="0">
    61 : 3 1 | 21 : 3 0 | 33 : 3 3 | 36 : 3 2 | 22 : 2 0 | 53 : 2 1 | 34 : 2 2 | 97 : 2 3 | 31 : 1 3 | 34 : 1 2 | 67 : 1 1 | 25 : 1 0 | 44 : 0 2 | 16 : 0 3 | 78 : 0 0 | 65 : 0 1 
  </relation>
  <relation name="11_15" arity="2" nbTuples="16" semantics="soft" defaultCost="0">
    59 : 3 1 | 18 : 3 0 | 7 : 3 3 | 85 : 3 2 | 100 : 2 0 | 94 : 2 1 | 93 : 2 2 | 1 : 2 3 | 18 : 1 3 | 23 : 1 2 | 5 : 1 1 | 5 : 1 0 | 2 : 0 2 | 39 : 0 3 | 30 : 0 0 | 41 : 0 1 
  </relation>
  <relation name="11_17" arity="2" nbTuples="16" semantics="soft" defaultCost="0">
    95 : 3 1 | 1 : 3 0 | 29 : 3 3 | 84 : 3 2 | 87 : 2 0 | 16 : 2 1 | 7 : 2 2 | 66 : 2 3 | 81 : 1 3 | 97 : 1 2 | 43 : 1 1 | 63 : 1 0 | 44 : 0 2 | 73 : 0 3 | 35 : 0 0 | 73 : 0 1 
  </relation>
  <relation name="11_20" arity="2" nbTuples="16" semantics="soft" defaultCost="0">
    33 : 3 1 | 76 : 3 0 | 40 : 3 3 | 50 : 3 2 | 93 : 2 0 | 62 : 2 1 | 93 : 2 2 | 55 : 2 3 | 79 : 1 3 | 43 : 1 2 | 79 : 1 1 | 80 : 1 0 | 83 : 0 2 | 61 : 0 3 | 34 : 0 0 | 86 : 0 1 
  </relation>
  <relation name="11_24" arity="2" nbTuples="16" semantics="soft" defaultCost="0">
    97 : 3 1 | 76 : 3 0 | 94 : 3 3 | 61 : 3 2 | 94 : 2 0 | 2 : 2 1 | 3 : 2 2 | 18 : 2 3 | 14 : 1 3 | 13 : 1 2 | 49 : 1 1 | 68 : 1 0 | 17 : 0 2 | 68 : 0 3 | 71 : 0 0 | 4 : 0 1 
  </relation>
  <relation name="12_17" arity="2" nbTuples="16" semantics="soft" defaultCost="0">
    70 : 3 1 | 42 : 3 0 | 92 : 3 3 | 100 : 3 2 | 20 : 2 0 | 12 : 2 1 | 93 : 2 2 | 50 : 2 3 | 16 : 1 3 | 61 : 1 2 | 61 : 1 1 | 48 : 1 0 | 16 : 0 2 | 12 : 0 3 | 30 : 0 0 | 40 : 0 1 
  </relation>
  <relation name="12_23" arity="2" nbTuples="16" semantics="soft" defaultCost="0">
    29 : 3 1 | 4 : 3 0 | 7 : 3 3 | 45 : 3 2 | 63 : 2 0 | 87 : 2 1 | 49 : 2 2 | 31 : 2 3 | 93 : 1 3 | 39 : 1 2 | 27 : 1 1 | 20 : 1 0 | 31 : 0 2 | 98 : 0 3 | 44 : 0 0 | 46 : 0 1 
  </relation>
  <relation name="13_16" arity="2" nbTuples="16" semantics="soft" defaultCost="0">
    41 : 3 1 | 20 : 3 0 | 25 : 3 3 | 37 : 3 2 | 13 : 2 0 | 83 : 2 1 | 56 : 2 2 | 17 : 2 3 | 3 : 1 3 | 34 : 1 2 | 13 : 1 1 | 76 : 1 0 | 93 : 0 2 | 95 : 0 3 | 93 : 0 0 | 80 : 0 1 
  </relation>
  <relation name="13_17" arity="2" nbTuples="16" semantics="soft" defaultCost="0">
    20 : 3 1 | 88 : 3 0 | 1 : 3 3 | 18 : 3 2 | 78 : 2 0 | 75 : 2 1 | 12 : 2 2 | 74 : 2 3 | 93 : 1 3 | 53 : 1 2 | 23 : 1 1 | 82 : 1 0 | 71 : 0 2 | 84 : 0 3 | 81 : 0 0 | 94 : 0 1 
  </relation>
  <relation name="13_15" arity="2" nbTuples="16" semantics="soft" defaultCost="0">
    34 : 3 1 | 38 : 3 0 | 74 : 3 3 | 19 : 3 2 | 88 : 2 0 | 31 : 2 1 | 98 : 2 2 | 52 : 2 3 | 14 : 1 3 | 52 : 1 2 | 4 : 1 1 | 13 : 1 0 | 84 : 0 2 | 33 : 0 3 | 89 : 0 0 | 90 : 0 1 
  </relation>
  <relation name="14_16" arity="2" nbTuples="16" semantics="soft" defaultCost="0">
    91 : 3 1 | 49 : 3 0 | 92 : 3 3 | 43 : 3 2 | 35 : 2 0 | 46 : 2 1 | 61 : 2 2 | 48 : 2 3 | 27 : 1 3 | 68 : 1 2 | 58 : 1 1 | 67 : 1 0 | 83 : 0 2 | 71 : 0 3 | 25 : 0 0 | 8 : 0 1 
  </relation>
  <relation name="14_18" arity="2" nbTuples="16" semantics="soft" defaultCost="0">
    13 : 3 1 | 87 : 3 0 | 9 : 3 3 | 50 : 3 2 | 34 : 2 0 | 86 : 2 1 | 9 : 2 2 | 66 : 2 3 | 2 : 1 3 | 45 : 1 2 | 85 : 1 1 | 30 : 1 0 | 66 : 0 2 | 36 : 0 3 | 39 : 0 0 | 20 : 0 1 
  </relation>
  <relation name="14_21" arity="2" nbTuples="16" semantics="soft" defaultCost="0">
    31 : 3 1 | 53 : 3 0 | 38 : 3 3 | 99 : 3 2 | 49 : 2 0 | 91 : 2 1 | 34 : 2 2 | 1 : 2 3 | 92 : 1 3 | 45 : 1 2 | 3 : 1 1 | 73 : 1 0 | 100 : 0 2 | 3 : 0 3 | 88 : 0 0 | 18 : 0 1 
  </relation>
  <relation name="14_24" arity="2" nbTuples="16" semantics="soft" defaultCost="0">
    85 : 3 1 | 77 : 3 0 | 54 : 3 3 | 65 : 3 2 | 41 : 2 0 | 43 : 2 1 | 24 : 2 2 | 95 : 2 3 | 18 : 1 3 | 35 : 1 2 | 45 : 1 1 | 30 : 1 0 | 85 : 0 2 | 56 : 0 3 | 53 : 0 0 | 80 : 0 1 
  </relation>
  <relation name="15_20" arity="2" nbTuples="16" semantics="soft" defaultCost="0">
    18 : 3 1 | 24 : 3 0 | 21 : 3 3 | 59 : 3 2 | 70 : 2 0 | 50 : 2 1 | 62 : 2 2 | 21 : 2 3 | 28 : 1 3 | 43 : 1 2 | 38 : 1 1 | 79 : 1 0 | 67 : 0 2 | 30 : 0 3 | 87 : 0 0 | 8 : 0 1 
  </relation>
  <relation name="15_22" arity="2" nbTuples="16" semantics="soft" defaultCost="0">
    83 : 3 1 | 71 : 3 0 | 40 : 3 3 | 14 : 3 2 | 19 : 2 0 | 96 : 2 1 | 82 : 2 2 | 46 : 2 3 | 71 : 1 3 | 52 : 1 2 | 1 : 1 1 | 89 : 1 0 | 35 : 0 2 | 6 : 0 3 | 80 : 0 0 | 38 : 0 1 
  </relation>
  <relation name="15_23" arity="2" nbTuples="16" semantics="soft" defaultCost="0">
    82 : 3 1 | 14 : 3 0 | 89 : 3 3 | 11 : 3 2 | 99 : 2 0 | 14 : 2 1 | 63 : 2 2 | 10 : 2 3 | 9 : 1 3 | 90 : 1 2 | 15 : 1 1 | 22 : 1 0 | 91 : 0 2 | 65 : 0 3 | 65 : 0 0 | 58 : 0 1 
  </relation>
  <relation name="15_24" arity="2" nbTuples="16" semantics="soft" defaultCost="0">
    46 : 3 1 | 88 : 3 0 | 68 : 3 3 | 10 : 3 2 | 87 : 2 0 | 94 : 2 1 | 81 : 2 2 | 38 : 2 3 | 77 : 1 3 | 54 : 1 2 | 31 : 1 1 | 50 : 1 0 | 13 : 0 2 | 77 : 0 3 | 42 : 0 0 | 23 : 0 1 
  </relation>
  <relation name="16_20" arity="2" nbTuples="16" semantics="soft" defaultCost="0">
    54 : 3 1 | 16 : 3 0 | 25 : 3 3 | 70 : 3 2 | 72 : 2 0 | 31 : 2 1 | 66 : 2 2 | 60 : 2 3 | 87 : 1 3 | 96 : 1 2 | 91 : 1 1 | 12 : 1 0 | 33 : 0 2 | 13 : 0 3 | 68 : 0 0 | 71 : 0 1 
  </relation>
  <relation name="16_22" arity="2" nbTuples="16" semantics="soft" defaultCost="0">
    88 : 3 1 | 66 : 3 0 | 36 : 3 3 | 7 : 3 2 | 60 : 2 0 | 59 : 2 1 | 85 : 2 2 | 4 : 2 3 | 18 : 1 3 | 14 : 1 2 | 28 : 1 1 | 3 : 1 0 | 2 : 0 2 | 24 : 0 3 | 39 : 0 0 | 82 : 0 1 
  </relation>
  <relation name="16_23" arity="2" nbTuples="16" semantics="soft" defaultCost="0">
    87 : 3 1 | 75 : 3 0 | 63 : 3 3 | 13 : 3 2 | 64 : 2 0 | 12 : 2 1 | 38 : 2 2 | 8 : 2 3 | 78 : 1 3 | 99 : 1 2 | 80 : 1 1 | 28 : 1 0 | 4 : 0 2 | 42 : 0 3 | 12 : 0 0 | 70 : 0 1 
  </relation>
  <relation name="16_24" arity="2" nbTuples="16" semantics="soft" defaultCost="0">
    87 : 3 1 | 40 : 3 0 | 49 : 3 3 | 85 : 3 2 | 74 : 2 0 | 76 : 2 1 | 73 : 2 2 | 96 : 2 3 | 36 : 1 3 | 78 : 1 2 | 41 : 1 1 | 1 : 1 0 | 61 : 0 2 | 66 : 0 3 | 95 : 0 0 | 87 : 0 1 
  </relation>
  <relation name="17_21" arity="2" nbTuples="16" semantics="soft" defaultCost="0">
    72 : 3 1 | 10 : 3 0 | 48 : 3 3 | 11 : 3 2 | 66 : 2 0 | 82 : 2 1 | 16 : 2 2 | 26 : 2 3 | 22 : 1 3 | 81 : 1 2 | 62 : 1 1 | 50 : 1 0 | 92 : 0 2 | 21 : 0 3 | 90 : 0 0 | 76 : 0 1 
  </relation>
  <relation name="18_23" arity="2" nbTuples="16" semantics="soft" defaultCost="0">
    56 : 3 1 | 48 : 3 0 | 68 : 3 3 | 94 : 3 2 | 12 : 2 0 | 68 : 2 1 | 62 : 2 2 | 70 : 2 3 | 83 : 1 3 | 55 : 1 2 | 44 : 1 1 | 19 : 1 0 | 99 : 0 2 | 94 : 0 3 | 44 : 0 0 | 63 : 0 1 
  </relation>
  <relation name="19_22" arity="2" nbTuples="16" semantics="soft" defaultCost="0">
    76 : 3 1 | 59 : 3 0 | 68 : 3 3 | 36 : 3 2 | 66 : 2 0 | 55 : 2 1 | 86 : 2 2 | 65 : 2 3 | 97 : 1 3 | 49 : 1 2 | 37 : 1 1 | 96 : 1 0 | 47 : 0 2 | 4 : 0 3 | 64 : 0 0 | 78 : 0 1 
  </relation>
  <relation name="19_23" arity="2" nbTuples="16" semantics="soft" defaultCost="0">
    100 : 3 1 | 15 : 3 0 | 64 : 3 3 | 88 : 3 2 | 9 : 2 0 | 33 : 2 1 | 33 : 2 2 | 86 : 2 3 | 25 : 1 3 | 5 : 1 2 | 95 : 1 1 | 91 : 1 0 | 9 : 0 2 | 31 : 0 3 | 36 : 0 0 | 91 : 0 1 
  </relation>
  <relation name="20_21" arity="2" nbTuples="16" semantics="soft" defaultCost="0">
    64 : 3 1 | 45 : 3 0 | 81 : 3 3 | 20 : 3 2 | 87 : 2 0 | 97 : 2 1 | 73 : 2 2 | 21 : 2 3 | 67 : 1 3 | 52 : 1 2 | 14 : 1 1 | 20 : 1 0 | 13 : 0 2 | 52 : 0 3 | 39 : 0 0 | 25 : 0 1 
  </relation>
  <relation name="22_24" arity="2" nbTuples="16" semantics="soft" defaultCost="0">
    3 : 3 1 | 43 : 3 0 | 56 : 3 3 | 59 : 3 2 | 75 : 2 0 | 51 : 2 1 | 87 : 2 2 | 72 : 2 3 | 67 : 1 3 | 28 : 1 2 | 23 : 1 1 | 15 : 1 0 | 44 : 0 2 | 43 : 0 3 | 34 : 0 0 | 6 : 0 1 
  </relation>
</relations>

<constraints nbConstraints="89">
  <constraint name="0_7" arity="2" scope="v0 v7" reference="0_7" />
  <constraint name="0_11" arity="2" scope="v0 v11" reference="0_11" />
  <constraint name="0_12" arity="2" scope="v0 v12" reference="0_12" />
  <constraint name="0_13" arity="2" scope="v0 v13" reference="0_13" />
  <constraint name="0_16" arity="2" scope="v0 v16" reference="0_16" />
  <constraint name="0_20" arity="2" scope="v0 v20" reference="0_20" />
  <constraint name="0_22" arity="2" scope="v0 v22" reference="0_22" />
  <constraint name="0_23" arity="2" scope="v0 v23" reference="0_23" />
  <constraint name="1_3" arity="2" scope="v1 v3" reference="1_3" />
  <constraint name="1_5" arity="2" scope="v1 v5" reference="1_5" />
  <constraint name="1_6" arity="2" scope="v1 v6" reference="1_6" />
  <constraint name="1_9" arity="2" scope="v1 v9" reference="1_9" />
  <constraint name="1_11" arity="2" scope="v1 v11" reference="1_11" />
  <constraint name="1_15" arity="2" scope="v1 v15" reference="1_15" />
  <constraint name="1_17" arity="2" scope="v1 v17" reference="1_17" />
  <constraint name="1_18" arity="2" scope="v1 v18" reference="1_18" />
  <constraint name="2_17" arity="2" scope="v2 v17" reference="2_17" />
  <constraint name="2_19" arity="2" scope="v2 v19" reference="2_19" />
  <constraint name="3_18" arity="2" scope="v3 v18" reference="3_18" />
  <constraint name="3_13" arity="2" scope="v3 v13" reference="3_13" />
  <constraint name="3_23" arity="2" scope="v3 v23" reference="3_23" />
  <constraint name="4_6" arity="2" scope="v4 v6" reference="4_6" />
  <constraint name="4_11" arity="2" scope="v4 v11" reference="4_11" />
  <constraint name="4_16" arity="2" scope="v4 v16" reference="4_16" />
  <constraint name="4_20" arity="2" scope="v4 v20" reference="4_20" />
  <constraint name="4_21" arity="2" scope="v4 v21" reference="4_21" />
  <constraint name="4_23" arity="2" scope="v4 v23" reference="4_23" />
  <constraint name="5_6" arity="2" scope="v5 v6" reference="5_6" />
  <constraint name="5_8" arity="2" scope="v5 v8" reference="5_8" />
  <constraint name="5_15" arity="2" scope="v5 v15" reference="5_15" />
  <constraint name="5_17" arity="2" scope="v5 v17" reference="5_17" />
  <constraint name="5_20" arity="2" scope="v5 v20" reference="5_20" />
  <constraint name="5_22" arity="2" scope="v5 v22" reference="5_22" />
  <constraint name="5_24" arity="2" scope="v5 v24" reference="5_24" />
  <constraint name="6_9" arity="2" scope="v6 v9" reference="6_9" />
  <constraint name="6_10" arity="2" scope="v6 v10" reference="6_10" />
  <constraint name="6_11" arity="2" scope="v6 v11" reference="6_11" />
  <constraint name="6_12" arity="2" scope="v6 v12" reference="6_12" />
  <constraint name="6_15" arity="2" scope="v6 v15" reference="6_15" />
  <constraint name="6_18" arity="2" scope="v6 v18" reference="6_18" />
  <constraint name="6_19" arity="2" scope="v6 v19" reference="6_19" />
  <constraint name="6_21" arity="2" scope="v6 v21" reference="6_21" />
  <constraint name="6_23" arity="2" scope="v6 v23" reference="6_23" />
  <constraint name="7_8" arity="2" scope="v7 v8" reference="7_8" />
  <constraint name="7_10" arity="2" scope="v7 v10" reference="7_10" />
  <constraint name="7_23" arity="2" scope="v7 v23" reference="7_23" />
  <constraint name="7_9" arity="2" scope="v7 v9" reference="7_9" />
  <constraint name="8_9" arity="2" scope="v8 v9" reference="8_9" />
  <constraint name="8_15" arity="2" scope="v8 v15" reference="8_15" />
  <constraint name="8_17" arity="2" scope="v8 v17" reference="8_17" />
  <constraint name="8_22" arity="2" scope="v8 v22" reference="8_22" />
  <constraint name="8_24" arity="2" scope="v8 v24" reference="8_24" />
  <constraint name="9_14" arity="2" scope="v9 v14" reference="9_14" />
  <constraint name="9_16" arity="2" scope="v9 v16" reference="9_16" />
  <constraint name="9_21" arity="2" scope="v9 v21" reference="9_21" />
  <constraint name="9_22" arity="2" scope="v9 v22" reference="9_22" />
  <constraint name="9_23" arity="2" scope="v9 v23" reference="9_23" />
  <constraint name="10_11" arity="2" scope="v10 v11" reference="10_11" />
  <constraint name="10_12" arity="2" scope="v10 v12" reference="10_12" />
  <constraint name="10_16" arity="2" scope="v10 v16" reference="10_16" />
  <constraint name="10_21" arity="2" scope="v10 v21" reference="10_21" />
  <constraint name="10_23" arity="2" scope="v10 v23" reference="10_23" />
  <constraint name="11_15" arity="2" scope="v11 v15" reference="11_15" />
  <constraint name="11_17" arity="2" scope="v11 v17" reference="11_17" />
  <constraint name="11_20" arity="2" scope="v11 v20" reference="11_20" />
  <constraint name="11_24" arity="2" scope="v11 v24" reference="11_24" />
  <constraint name="12_17" arity="2" scope="v12 v17" reference="12_17" />
  <constraint name="12_23" arity="2" scope="v12 v23" reference="12_23" />
  <constraint name="13_16" arity="2" scope="v13 v16" reference="13_16" />
  <constraint name="13_17" arity="2" scope="v13 v17" reference="13_17" />
  <constraint name="13_15" arity="2" scope="v13 v15" reference="13_15" />
  <constraint name="14_16" arity="2" scope="v14 v16" reference="14_16" />
  <constraint name="14_18" arity="2" scope="v14 v18" reference="14_18" />
  <constraint name="14_21" arity="2" scope="v14 v21" reference="14_21" />
  <constraint name="14_24" arity="2" scope="v14 v24" reference="14_24" />
  <constraint name="15_20" arity="2" scope="v15 v20" reference="15_20" />
  <constraint name="15_22" arity="2" scope="v15 v22" reference="15_22" />
  <constraint name="15_23" arity="2" scope="v15 v23" reference="15_23" />
  <constraint name="15_24" arity="2" scope="v15 v24" reference="15_24" />
  <constraint name="16_20" arity="2" scope="v16 v20" reference="16_20" />
  <constraint name="16_22" arity="2" scope="v16 v22" reference="16_22" />
  <constraint name="16_23" arity="2" scope="v16 v23" reference="16_23" />
  <constraint name="16_24" arity="2" scope="v16 v24" reference="16_24" />
  <constraint name="17_21" arity="2" scope="v17 v21" reference="17_21" />
  <constraint name="18_23" arity="2" scope="v18 v23" reference="18_23" />
  <constraint name="19_22" arity="2" scope="v19 v22" reference="19_22" />
  <constraint name="19_23" arity="2" scope="v19 v23" reference="19_23" />
  <constraint name="20_21" arity="2" scope="v20 v21" reference="20_21" />
  <constraint name="22_24" arity="2" scope="v22 v24" reference="22_24" />
</constraints>
</instance >